10	5
0	4	2	10	1	3
1	2	4	8
2	1	5
3	1	8
4	1	7
5	1	11
6	1	11
7	1	11
8	1	11
9	1	11
10	1	11
11	0
0	0	0	0	0	0	0
1	9	0	4	0	0	1
2	10	5	3	1	4	4
3	4	0	0	3	0	0
4	9	0	0	3	5	5
5	6	0	4	0	0	0
6	3	4	0	0	1	4
7	3	3	3	0	1	0
8	2	0	0	0	4	0
9	1	0	4	4	0	4
10	3	3	3	5	0	0
11	0	0	0	0	0	0
5	5	5	5	5
